! ================================================================
! This file was generated by Gabedit
! ================================================================
 $SYSTEM MWORDS=20 $END
 $CONTRL RUNTYP=Energy $END
 $CONTRL SCFTYP=UHF $END
 $CONTRL ICHARG=-1  MULT=2 $END
 $BASIS GBASIS=N311 NGAUSS=6 $END
 $BASIS NDFUNC=1 NFFUNC=1 $END
 $BASIS DIFFSP=.TRUE. DIFFS=.TRUE. $END
 $SCF DIRSCF=.TRUE. $END
 $DATA
Molecule specification
C1
C  6.000000 0.000001 0.000001 0.000001
H  1.000000 -0.847018 -0.618048 0.297781
H  1.000000 0.612664 -0.544903 -0.718207
H  1.000000 0.598776 0.243097 0.877770
H  1.000000 -0.364422 0.919853 -0.457346
 $END
